p tw 70 9451 2 
1 3 
1 4 
1 5 
1 6 
1 7 
1 8 
1 9 
1 10 
1 11 
1 12 
1 13 
1 14 
1 15 
1 16 
1 17 
1 18 
1 19 
1 23 
1 34 
1 37 
1 45 
1 55 
1 58 
1 64 
1 65 
1 67 
2 3 
2 4 
2 5 
2 6 
2 7 
2 8 
2 9 
2 10 
2 11 
2 14 
2 20 
2 21 
2 22 
2 23 
2 24 
2 25 
2 26 
2 27 
2 31 
2 35 
2 52 
2 57 
2 60 
2 66 
2 67 
2 68 
3 4 
3 5 
3 6 
3 7 
3 8 
3 9 
3 10 
3 12 
3 19 
3 20 
3 27 
3 28 
3 29 
3 30 
3 31 
3 32 
3 33 
3 34 
3 40 
3 46 
3 48 
3 51 
3 63 
3 67 
3 69 
4 5 
4 6 
4 7 
4 8 
4 9 
4 10 
4 11 
4 13 
4 21 
4 28 
4 33 
4 35 
4 36 
4 37 
4 38 
4 39 
4 40 
4 43 
4 50 
4 53 
4 59 
4 64 
4 68 
4 69 
5 6 
5 7 
5 8 
5 9 
5 10 
5 12 
5 17 
5 22 
5 25 
5 30 
5 35 
5 39 
5 41 
5 42 
5 43 
5 44 
5 45 
5 46 
5 49 
5 51 
5 58 
5 59 
5 60 
6 7 
6 8 
6 9 
6 10 
6 14 
6 18 
6 23 
6 26 
6 28 
6 29 
6 36 
6 41 
6 46 
6 47 
6 48 
6 49 
6 50 
6 54 
6 56 
6 58 
6 68 
6 70 
7 8 
7 9 
7 10 
7 15 
7 16 
7 20 
7 24 
7 30 
7 37 
7 38 
7 42 
7 43 
7 47 
7 48 
7 51 
7 52 
7 53 
7 54 
7 55 
7 56 
7 57 
8 9 
8 10 
8 15 
8 18 
8 25 
8 26 
8 31 
8 33 
8 38 
8 40 
8 42 
8 44 
8 49 
8 50 
8 55 
8 61 
8 62 
8 63 
8 65 
8 66 
9 10 
9 13 
9 17 
9 21 
9 27 
9 32 
9 34 
9 41 
9 44 
9 47 
9 52 
9 56 
9 57 
9 59 
9 61 
9 62 
9 63 
9 64 
9 70 
10 16 
10 19 
10 22 
10 24 
10 29 
10 32 
10 36 
10 39 
10 45 
10 53 
10 54 
10 60 
10 61 
10 62 
10 65 
10 66 
10 69 
10 70 
11 12 
11 13 
11 14 
11 15 
11 16 
11 17 
11 18 
11 19 
11 20 
11 21 
11 22 
11 23 
11 24 
11 25 
11 26 
11 27 
11 33 
11 43 
11 50 
11 53 
11 59 
11 64 
11 68 
11 69 
12 13 
12 14 
12 15 
12 16 
12 17 
12 18 
12 19 
12 20 
12 22 
12 28 
12 29 
12 30 
12 31 
12 32 
12 33 
12 34 
12 35 
12 41 
12 42 
12 43 
12 44 
12 45 
12 46 
13 14 
13 15 
13 16 
13 17 
13 18 
13 19 
13 21 
13 27 
13 28 
13 34 
13 35 
13 36 
13 37 
13 38 
13 39 
13 40 
13 44 
13 47 
13 57 
13 59 
13 62 
13 70 
14 15 
14 16 
14 17 
14 18 
14 19 
14 23 
14 29 
14 31 
14 35 
14 36 
14 41 
14 47 
14 48 
14 49 
14 50 
14 52 
14 57 
14 60 
14 66 
14 67 
14 68 
15 16 
15 17 
15 18 
15 19 
15 20 
15 26 
15 33 
15 37 
15 38 
15 42 
15 44 
15 47 
15 49 
15 51 
15 52 
15 53 
15 54 
15 63 
15 65 
15 66 
16 17 
16 18 
16 19 
16 22 
16 24 
16 30 
16 32 
16 36 
16 38 
16 43 
16 48 
16 54 
16 55 
16 56 
16 57 
16 60 
16 62 
16 65 
16 69 
17 18 
17 19 
17 21 
17 25 
17 30 
17 32 
17 39 
17 41 
17 49 
17 51 
17 52 
17 56 
17 58 
17 59 
17 60 
17 61 
17 63 
17 64 
18 19 
18 25 
18 26 
18 28 
18 31 
18 40 
18 42 
18 46 
18 50 
18 54 
18 55 
18 56 
18 58 
18 61 
18 62 
18 68 
18 70 
19 24 
19 27 
19 29 
19 39 
19 40 
19 45 
19 46 
19 48 
19 51 
19 53 
19 61 
19 63 
19 66 
19 67 
19 69 
19 70 
20 21 
20 22 
20 23 
20 24 
20 25 
20 26 
20 27 
20 28 
20 29 
20 30 
20 31 
20 32 
20 33 
20 34 
20 37 
20 42 
20 47 
20 51 
20 52 
20 53 
20 54 
21 22 
21 23 
21 24 
21 25 
21 26 
21 27 
21 28 
21 32 
21 35 
21 36 
21 37 
21 38 
21 39 
21 40 
21 41 
21 52 
21 56 
21 61 
21 63 
21 64 
22 23 
22 24 
22 25 
22 26 
22 27 
22 32 
22 35 
22 36 
22 41 
22 42 
22 43 
22 44 
22 45 
22 46 
22 54 
22 60 
22 62 
22 65 
22 69 
23 24 
23 25 
23 26 
23 27 
23 29 
23 34 
23 36 
23 37 
23 41 
23 45 
23 47 
23 48 
23 49 
23 50 
23 55 
23 58 
23 64 
23 65 
23 67 
24 25 
24 26 
24 27 
24 29 
24 30 
24 38 
24 39 
24 43 
24 45 
24 48 
24 53 
24 55 
24 56 
24 57 
24 61 
24 66 
24 70 
25 26 
25 27 
25 30 
25 31 
25 39 
25 40 
25 42 
25 49 
25 50 
25 51 
25 55 
25 58 
25 59 
25 60 
25 61 
25 62 
26 27 
26 28 
26 33 
26 38 
26 44 
26 46 
26 49 
26 54 
26 56 
26 58 
26 63 
26 65 
26 66 
26 68 
26 70 
27 34 
27 40 
27 44 
27 46 
27 47 
27 48 
27 51 
27 57 
27 59 
27 62 
27 63 
27 67 
27 69 
27 70 
28 29 
28 30 
28 31 
28 32 
28 33 
28 34 
28 35 
28 36 
28 37 
28 38 
28 39 
28 40 
28 46 
28 54 
28 56 
28 58 
28 68 
28 70 
29 30 
29 31 
29 32 
29 33 
29 34 
29 36 
29 39 
29 41 
29 45 
29 47 
29 48 
29 49 
29 50 
29 53 
29 61 
29 66 
29 70 
30 31 
30 32 
30 33 
30 34 
30 38 
30 39 
30 43 
30 48 
30 49 
30 51 
30 55 
30 56 
30 57 
30 58 
30 59 
30 60 
31 32 
31 33 
31 34 
31 35 
31 40 
31 42 
31 50 
31 52 
31 55 
31 57 
31 60 
31 61 
31 62 
31 66 
31 67 
31 68 
32 33 
32 34 
32 36 
32 41 
32 52 
32 54 
32 56 
32 60 
32 61 
32 62 
32 63 
32 64 
32 65 
32 69 
33 34 
33 38 
33 43 
33 44 
33 49 
33 50 
33 53 
33 59 
33 63 
33 64 
33 65 
33 66 
33 68 
33 69 
34 37 
34 44 
34 45 
34 47 
34 55 
34 57 
34 58 
34 59 
34 62 
34 64 
34 65 
34 67 
34 70 
35 36 
35 37 
35 38 
35 39 
35 40 
35 41 
35 42 
35 43 
35 44 
35 45 
35 46 
35 52 
35 57 
35 60 
35 66 
35 67 
35 68 
36 37 
36 38 
36 39 
36 40 
36 41 
36 47 
36 48 
36 49 
36 50 
36 54 
36 60 
36 62 
36 65 
36 69 
37 38 
37 39 
37 40 
37 42 
37 45 
37 47 
37 51 
37 52 
37 53 
37 54 
37 55 
37 58 
37 64 
37 65 
37 67 
38 39 
38 40 
38 43 
38 44 
38 48 
38 49 
38 55 
38 56 
38 57 
38 63 
38 65 
38 66 
39 40 
39 45 
39 49 
39 51 
39 53 
39 58 
39 59 
39 60 
39 61 
39 66 
39 70 
40 42 
40 46 
40 48 
40 50 
40 51 
40 55 
40 61 
40 62 
40 63 
40 67 
40 69 
41 42 
41 43 
41 44 
41 45 
41 46 
41 47 
41 48 
41 49 
41 50 
41 52 
41 56 
41 61 
41 63 
41 64 
42 43 
42 44 
42 45 
42 46 
42 47 
42 50 
42 51 
42 52 
42 53 
42 54 
42 55 
42 61 
42 62 
43 44 
43 45 
43 46 
43 48 
43 50 
43 53 
43 55 
43 56 
43 57 
43 59 
43 64 
43 68 
43 69 
44 45 
44 46 
44 47 
44 49 
44 57 
44 59 
44 62 
44 63 
44 65 
44 66 
44 70 
45 46 
45 53 
45 55 
45 58 
45 61 
45 64 
45 65 
45 66 
45 67 
45 70 
46 48 
46 51 
46 54 
46 56 
46 58 
46 63 
46 67 
46 68 
46 69 
46 70 
47 48 
47 49 
47 50 
47 51 
47 52 
47 53 
47 54 
47 57 
47 59 
47 62 
47 70 
48 49 
48 50 
48 51 
48 55 
48 56 
48 57 
48 63 
48 67 
48 69 
49 50 
49 51 
49 58 
49 59 
49 60 
49 63 
49 65 
49 66 
50 53 
50 55 
50 59 
50 61 
50 62 
50 64 
50 68 
50 69 
51 52 
51 53 
51 54 
51 58 
51 59 
51 60 
51 63 
51 67 
51 69 
52 53 
52 54 
52 56 
52 57 
52 60 
52 61 
52 63 
52 64 
52 66 
52 67 
52 68 
53 54 
53 59 
53 61 
53 64 
53 66 
53 68 
53 69 
53 70 
54 56 
54 58 
54 60 
54 62 
54 65 
54 68 
54 69 
54 70 
55 56 
55 57 
55 58 
55 61 
55 62 
55 64 
55 65 
55 67 
56 57 
56 58 
56 61 
56 63 
56 64 
56 68 
56 70 
57 59 
57 60 
57 62 
57 66 
57 67 
57 68 
57 70 
58 59 
58 60 
58 64 
58 65 
58 67 
58 68 
58 70 
59 60 
59 62 
59 64 
59 68 
59 69 
59 70 
60 62 
60 65 
60 66 
60 67 
60 68 
60 69 
61 62 
61 63 
61 64 
61 66 
61 70 
62 65 
62 69 
62 70 
63 64 
63 65 
63 66 
63 67 
63 69 
64 65 
64 67 
64 68 
64 69 
65 66 
65 67 
65 69 
66 67 
66 68 
66 70 
67 68 
67 69 
68 69 
68 70 
